20180426 300 4800 0 0
20170427 200 0 0 0
20160524 200 0 0 0
20150421 120 0 0 0
20140430 150 5000 0 0
20130423 120 0 0 0
20120503 120 0 0 0
20110421 100 0 0 0
20100518 30 0 0 0
20090408 100 0 0 0
20080515 100 0 0 0
20070327 100 0 0 0
20060412 150 0 0 0
20060222 0 2800 0 0
20050411 250 7000 0 0
